00
00
00
00
00
00
00
00
00
00
00
00
00
00
00
00
00
00
00
00
00
00
00
00
00
00
00
00
00
00
00
00
00
00
00
00
00
00
00
00
00
00
00
00
00
00
00
00
00
00
00
00
00
00
00
00
00
00
00
00
00
00
00
00
00
00
00
00
00
00
00
00
00
00
00
00
00
00
00
00
00
00
00
00
00
00
00
00
00
00
00
00
00
00
00
00
00
00
00
00
00
00
00
00
00
00
00
00
00
00
00
00
00
00
00
00
00
00
00
00
00
00
00
00
00
00
00
00
00
00
00
00
00
00
00
00
00
00
00
00
00
00
00
00
00
00
00
00
00
00
00
00
00
00
00
00
00
00
00
00
00
00
00
00
00
00
00
00
00
00
00
00
00
00
00
00
00
00
00
00
00
00
00
00
00
00
00
00
00
00
00
00
00
00
00
00
00
00
00
00
00
00
00
00
00
00
00
00
00
00
00
00
00
00
00
00
00
00
00
00
00
00
00
00
00
00
00
00
00
00
00
00
00
00
00
00
00
00
00
00
00
00
00
00
00
00
00
00
00
00
00
00
00
00
00
00
00
00
00
00
00
00
00
00
00
00
00
00
00
00
00
00
00
00
00
00
00
00
00
00
00
00
00
00
00
00
00
00
00
00
00
00
00
00
00
00
00
00
00
00
00
00
00
00
00
00
00
00
00
00
00
00
00
00
00
00
00
00
00
00
00
00
00
00
00
00
00
00
00
00
00
00
00
00
00
00
00
00
00
00
00
00
00
00
00
00
00
00
00
00
00
00
00
00
00
00
00
00
00
00
00
00
00
00
00
00
00
00
00
00
00
00
00
00
00
00
00
00
00
00
00
00
00
00
00
00
00
00
00
00
00
00
00
00
00
00
00
00
00
00
00
00
00
00
00
00
00
00
00
00
00
00
00
00
00
00
00
00
00
00
00
00
00
00
00
00
00
00
00
00
00
00
00
00
00
00
00
00
00
00
00
00
00
00
00
00
00
00
00
00
00
00
00
00
00
00
00
00
00
00
00
00
00
00
00
00
00
00
00
00
00
00
00
00
00
00
00
00
00
00
00
00
00
00
00
00
00
00
00
00
00
00
00
00
00
00
00
00
00
00
00
00
00
00
00
00
00
00
00
00
00
00
00
00
00
00
00
00
00
00
00
00
00
00
00
00
00
00
00
00
00
00
00
00
00
00
00
00
00
00
00
00
00
00
00
00
00
00
00
00
00
00
00
00
00
00
00
00
00
00
00
00
00
00
00
00
00
00
00
00
00
00
00
00
00
00
00
00
00
00
00
00
00
00
00
00
00
00
00
00
00
00
00
00
00
00
00
00
00
00
00
00
00
00
00
00
00
00
00
00
00
00
00
00
00
00
00
00
00
00
00
00
00
00
00
00
00
00
00
00
00
00
00
00
00
00
00
00
00
00
00
00
00
00
00
00
00
00
00
00
00
00
00
00
00
00
00
00
00
00
00
00
00
00
00
00
00
00
00
00
00
00
00
00
00
00
00
00
00
00
00
00
00
00
00
00
00
00
00
00
00
00
00
00
00
00
00
00
00
00
00
00
00
00
00
00
00
00
00
00
00
00
00
00
00
00
00
00
00
00
00
00
00
00
00
00
00
00
00
00
00
00
00
00
00
00
00
00
00
00
00
00
00
00
00
00
00
00
00
00
00
00
00
00
00
00
00
00
00
00
00
00
00
00
00
00
00
00
00
00
00
00
00
00
00
00
00
00
00
00
00
00
00
00
00
00
00
00
00
00
00
00
00
00
00
00
00
00
00
00
00
00
00
00
00
00
00
00
00
00
00
00
00
00
00
00
00
00
00
00
00
00
00
00
00
00
00
00
00
00
00
00
00
00
00
00
00
00
00
00
00
00
00
00
00
00
00
00
00
00
00
00
00
00
00
00
00
00
00
00
00
00
00
00
00
00
00
00
00
00
00
00
00
00
00
00
00
00
00
00
00
00
00
00
00
00
00
00
00
00
00
00
00
00
00
00
00
00
00
00
00
00
00
00
00
00
00
00
00
00
00
00
00
00
00
00
00
00
00
00
00
00
00
00
00
00
00
00
00
00
00
00
00
00
00
00
00
00
00
00
00
00
00
00
00
00
00
00
00
00
00
00
00
00
00
00
00
00
00
00
00
00
00
00
00
00
00
00
00
00
00
00
00
00
00
00
00
00
00
00
00
00
00
00
00
00
00
00
00
00
00
00
00
00
00
00
00
00
00
00
00
00
00
00
00
00
00
00
00
00
00
00
00
00
00
00
00
00
00
00
00
00
00
00
00
00
00
00
00
00
00
00
00
00
00
00
00
00
00
00
00
00
00
00
00
00
00
00
00
00
00
00
00
00
00
00
00
00
00
00
00
00
00
00
00
00
00
00
00
00
00
00
00
00
00
00
00
00
00
00
00
00
00
00
00
00
00
00
00
00
00
00
00
00
00
00
00
00
00
00
00
00
00
00
00
00
00
00
00
00
00
00
00
00
00
00
00
00
00
00
00
00
00
00
00
00
00
00
00
00
00
00
00
00
00
00
00
00
00
00
00
00
00
00
00
00
00
00
00
00
00
00
00
00
00
00
00
00
00
00
00
00
00
00
00
00
00
00
00
00
00
00
00
00
00
00
00
00
00
00
00
00
00
00
00
00
00
00
00
00
00
00
00
00
00
00
00
00
00
00
00
00
00
00
00
00
00
00
00
00
00
00
00
00
00
00
00
00
00
00
00
00
00
00
00
00
00
00
00
00
00
00
00
00
00
00
00
00
00
00
00
00
00
00
00
00
00
00
00
00
00
00
00
00
00
00
00
00
00
00
00
00
00
00
00
00
00
00
00
00
00
00
00
00
00
00
00
00
00
00
00
00
00
00
00
00
00
00
00
00
00
00
00
00
00
00
00
00
00
00
00
00
00
00
00
00
00
00
00
00
00
00
00
00
00
00
00
00
00
00
00
00
00
00
00
00
00
00
00
00
00
00
00
00
00
00
00
00
00
00
00
00
00
00
00
00
00
00
00
00
00
00
00
00
00
00
00
00
00
00
00
00
00
00
00
00
00
00
00
00
00
00
00
00
00
00
00
00
00
00
00
00
00
00
00
00
00
00
00
00
00
00
00
00
00
00
00
00
00
00
00
00
00
00
00
00
00
00
00
00
00
00
00
00
00
00
00
00
00
00
00
00
00
00
00
00
00
00
00
00
00
00
00
00
00
00
00
00
00
00
00
00
00
00
00
00
00
00
00
00
00
00
00
00
00
00
00
00
00
00
00
00
00
00
00
00
00
00
00
00
00
00
00
00
00
00
00
00
00
00
00
00
00
00
00
00
00
00
00
00
00
00
00
00
00
00
00
00
00
00
00
00
00
00
00
00
00
00
00
00
00
00
00
00
00
00
00
00
00
00
00
00
00
00
00
00
00
00
00
00
00
00
00
00
00
00
00
00
00
00
00
00
00
00
00
00
00
00
00
00
00
00
00
00
00
00
00
00
00
00
00
00
00
00
00
00
00
00
00
00
00
00
00
00
00
00
00
00
00
00
00
00
00
00
00
00
00
00
00
00
00
00
00
00
00
00
00
00
00
00
00
00
00
00
00
00
00
00
00
00
00
00
00
00
00
00
00
00
00
00
00
00
00
00
00
00
00
00
00
00
00
00
00
00
00
00
00
00
00
00
00
00
00
00
00
00
00
00
00
00
00
00
00
00
00
00
00
00
00
00
00
00
00
00
00
00
00
00
00
00
00
00
00
00
00
00
00
00
00
00
00
00
00
00
00
00
00
00
00
00
00
00
00
00
00
00
00
00
00
00
00
00
00
00
00
00
00
00
00
00
00
00
00
00
00
00
00
00
00
00
00
00
00
00
00
00
00
00
00
00
00
00
00
00
00
00
00
00
00
00
00
00
00
00
00
00
00
00
00
00
00
00
00
00
00
00
00
00
00
00
00
00
00
00
00
00
00
00
00
00
00
00
00
00
00
00
00
00
00
00
00
00
00
00
00
00
00
00
00
00
00
00
00
00
00
00
00
00
00
00
00
00
00
00
00
00
00
00
00
00
00
00
00
00
00
00
00
00
00
00
00
00
00
00
00
00
00
00
00
00
00
00
00
00
00
00
00
00
00
00
00
00
00
00
00
00
00
00
00
00
00
00
00
00
00
00
00
00
00
00
00
00
00
00
00
00
00
00
00
00
00
00
00
00
00
00
00
00
00
00
00
00
00
00
00
00
00
00
00
00
00
00
00
00
00
00
00
00
00
00
00
00
00
00
00
00
00
00
00
00
00
00
00
00
00
00
00
00
00
00
00
00
00
00
00
00
00
00
00
00
00
00
00
00
00
00
00
00
00
00
00
00
00
00
00
00
00
00
00
00
00
00
00
00
00
00
00
00
00
00
00
00
00
00
00
00
00
00
00
00
00
00
00
00
00
00
00
00
00
00
00
00
00
00
00
00
00
00
00
00
00
00
00
00
00
00
00
00
00
00
00
00
00
00
00
00
00
00
00
00
00
00
00
00
00
00
00
00
00
00
00
00
00
00
00
00
00
00
00
00
00
00
00
00
00
00
00
00
00
00
00
00
00
00
00
00
00
00
36
36
E6
33
30
3A
4D
B5
81
51
38
39
01
40
E2
2E
48
CF
67
F2
54
23
50
22
01
29
A7
7A
3D
BB
1D
AF
4D
5D
96
5E
43
D7
99
3C
8C
4D
AF
19
91
F1
F4
9D
FE
E4
EE
CA
98
DD
6F
DD
CD
CC
E5
57
AD
9D
89
79
F5
7B
B3
8E
F4
A9
42
85
A0
FB
E9
16
A4
86
69
53
EB
29
64
C5
1B
8D
52
38
01
22
50
AE
D2
F5
68
99
9C
43
5C
81
3F
50
01
DA
89
6D
CA
C0
B3
D0
F3
41
E4
B6
04
BD
E0
B9
83
41
AC
D0
E3
F7
0A
8C
51
CB
90
78
2F
AF
02
02
7E
B0
B8
7A
6B
EF
8C
28
9D
1E
49
0C
86
0A
77
A9
42
67
9B
08
F8
54
A4
21
F9
35
DA
B7
0F
F2
20
1A
73
14
22
19
6D
82
B8
DF
F4
7E
4A
6C
EF
49
55
04
D9
51
84
6B
1F
02
2F
33
FB
F7
4F
C6
72
40
AD
03
95
03
41
E8
E4
47
D0
16
CA
AF
1E
3B
C8
BC
54
E2
53
77
23
2D
33
3F
CC
39
E6
A4
24
EB
0F
86
4C
69
1A
A7
E8
73
01
24
3C
B3
18
EF
73
A5
1E
A8
1C
3C
0F
FB
80
47
0D
E2
C5
0C
0A
9B
4A
62
8F
DA
74
86
44
E7
33
38
1E
52
11
70
35
77
13
76
BF
1C
90
F3
8A
77
79
14
1E
1B
4B
48
BC
25
95
44
20
08
BF
AE
31
9D
C9
0A
59
0C
19
87
B7
01
67
58
0F
F7
B2
01
1E
53
C9
F4
F5
99
65
77
55
41
75
46
50
77
93
6A
A9
73
1E
3F
F2
69
51
22
EC
12
A9
59
11
8D
14
C4
98
78
BA
22
DB
14
97
1E
97
C3
AC
41
77
6B
74
4A
77
9D
D0
1E
B3
64
81
8F
BC
B3
E5
DE
77
60
3A
28
17
10
1E
18
BB
FF
4B
55
04
77
4C
77
8C
94
3E
CB
1E
11
98
FF
8A
C2
95
3C
D1
12
6F
BE
25
54
95
6F
FE
71
BB
73
96
B4
EE
C3
43
4D
E9
CC
B4
C1
65
86
1A
71
D7
16
F0
88
B4
D6
B8
F7
59
88
63
AC
B9
6B
02
E1
4F
CB
36
2A
6B
2C
9D
B8
FB
CC
0D
69
53
53
1A
6B
02
F7
03
EE
F5
D2
8F
A6
BB
AB
01
0C
06
04
01
AB
BB
A6
8F
D2
F5
EE
04
06
AB
01
A6
BB
D2
8F
EE
F5
0C
BB
A6
01
AB
F5
EE
8F
D2
A6
BB
AB
01
EE
F5
D2
8F
0C
06
04
03
F7
02
6B
04
06
F7
03
6B
02
0C
02
6B
03
F7
6B
02
F7
03
0C
06
04
04
06
0C
67
BD
D6
BB
40
3F
9C
68
2A
D2
CC
F1
07
E2
7B
97
01
F5
C8
C3
52
FB
9C
73
A6
2E
C4
D8
F5
E8
01
5C
48
46
5B
8F
68
65
E2
71
5E
B6
C1
2F
49
57
F2
C6
79
4C
A5
DE
25
93
B9
CD
8C
45
8D
E9
AA
55
66
6D
D5
A7
1C
12
76
07
55
06
04
8A
B0
F1
18
6B
51
02
4B
F7
C1
03
B9
F7
D0
E0
03
2F
02
6B
8C
0A
05
06
8C
02
03
D0
4F
E6
CE
73
2B
A9
B1
B9
54
6B
25
F7
A4
33
F6
09
8A
07
BD
6D
08
10
B9
95
F7
72
51
75
02
25
02
B8
90
8C
B6
03
D0
CA
7A
3D
DD
90
4B
E0
C0
F2
8B
A5
CB
6A
79
59
95
CD
51
E6
D0
03
02
8C
08
04
F3
89
43
BC
04
6D
3D
05
71
06
BD
89
DA
6D
BD
B8
6B
D0
41
91
57
84
A5
83
C6
08
F7
B9
02
51
E0
3B
D9
A8
FF
F1
55
71
C7
0A
08
04
F3
02
51
F7
B9
D4
BE
4C
5F
C5
6A
31
72
0B
4B
5C
03
8D
F6
45
7D
B0
2B
06
05
B1
2C
3A
EF
1D
C2
16
30
08
B1
0C
FB
0C
0E
FF
09
12
09
0E
0C
0A
18
20
FB
DE
08
59
0A
09
0E
83
E3
FF
AA
0F
86
CE
14
12
1C
1B
1C
0E
FF
DA
B7
14
18
0C
08
0A
0F
10
3C
22
28
30
DA
6D
BD
68
60
AE
D2
5C
3F
BB
AA
F3
04
39
F5
C4
D2
9C
01
B4
A6
FF
F5
11
52
BC
97
82
7B
A6
F5
68
70
8F
99
01
BB
46
CD
E8
B0
74
9B
58
2F
A2
F3
95
F7
25
51
B5
4C
86
6A
83
B8
8C
03
CA
5D
A0
C0
D6
BD
47
10
18
96
04
A2
D6
6F
06
9F
F3
12
03
A4
8D
3B
F6
58
45
02
51
6B
4B
02
C1
F7
B9
03
09
8A
07
45
F6
8D
03
E4
96
5C
4B
0B
72
61
6A
C5
5F
4C
B9
F7
51
02
85
CC
88
6F
D6
0A
1C
02
33
F6
D9
A4
9B
8D
F7
F7
D0
E0
03
2F
02
6B
8C
9A
4D
76
A8
D9
3B
E0
F3
04
51
02
B9
F7
AE
C6
83
A5
84
41
D0
6B
B8
63
BF
21
06
05
93
F3
BD
DD
06
5E
04
D6
05
0A
05
06
8C
02
03
D0
37
A2
E6
51
CD
95
0B
79
6A
CB
A5
C0
E0
4B
90
FD
F0
A0
9F
5E
86
FF
F1
55
F6
33
A4
F7
6F
D6
25
6B
54
B9
D1
A9
2B
73
CE
D0
03
02
8C
52
29
C5
F3
04
DA
20
30
EB
18
7F
10
3A
0B
61
80
F9
67
0C
08
0A
17
85
0D
FB
08
1E
2C
F9
B5
0B
AE
DA
0A
0C
0F
E7
FD
5D
0C
0A
73
A9
14
18
1E
1A
0D
FD
B1
67
11
A5
DC
63
08
0C
14
30
28
22
3C
E3
1C
AF
F1
66
04
F3
07
2B
55
E3
F7
22
A4
65
33
19
F6
51
02
B8
90
8C
B6
03
D0
CA
25
9C
E8
4E
58
74
B6
FE
81
A1
CE
D7
7F
22
0F
B7
86
0A
03
8D
F6
45
AD
D8
90
82
C3
7A
49
51
3C
33
46
22
E5
A4
95
03
E4
D8
CA
ED
8C
B8
AF
F9
F2
57
79
C6
A5
4C
91
57
84
A5
83
C6
24
0E
0C
09
FF
E4
CA
8C
AF
9D
C0
80
D5
31
B5
06
D5
AD
89
C7
05
6D
43
93
C7
71
ED
2F
B6
E3
ED
15
5B
84
0E
F8
2D
83
0F
4C
09
D8
FC
A8
82
DD
E0
4B
DB
38
EA
7D
B0
2B
58
19
9B
C1
1B
98
09
4C
0F
83
C8
D7
47
32
9A
CA
E9
45
13
98
4C
83
BD
6D
BA
82
C3
7E
EF
5A
41
EE
2D
22
B5
36
0F
83
09
4C
47
AD
3D
67
DA
8E
B4
36
3C
2D
24
86
4C
83
6A
A7
DD
96
B7
62
D3
11
98
1B
D4
7A
3D
DD
9B
58
C9
BA
5D
9D
DA
B7
F4
E6
95
8F
01
38
04
66
F1
AF
55
2B
07
F3
04
6D
3D
05
71
06
BD
89
D7
E5
4D
FC
3B
A8
90
81
4F
7F
A9
32
CE
36
09
0A
83
0E
6B
02
F7
03
0D
88
F0
6D
D5
E2
08
DA
7A
0A
E2
0C
67
0F
0F
89
05
CA
03
8C
B8
5F
FE
35
7F
9A
A1
B5
4C
86
6A
83
4B
D9
65
3B
75
B4
D8
92
DB
0F
0E
07
F1
8D
A4
F6
02
64
56
D7
2B
EA
32
AC
32
EA
2B
D7
02
F6
A4
8D
E1
FE
5F
D6
BD
67
42
63
3E
BF
45
21
99
B5
33
61
2D
08
FF
AA
0E
5E
2F
C1
B1
67
14
EE
2D
22
B5
36
0C
0E
FF
09
EA
75
AD
DA
B7
A9
18
1C
E3
12
9F
C1
75
19
9B
1E
17
85
0D
67
DA
18
4F
E6
3C
28
0C
B7
47
0F
93
0A
DA
86
47
AD
3D
D8
E0
90
A0
15
91
F8
C6
09
84
3F
84
09
C6
F8
A0
90
E0
D8
5D
A0
C0
C7
2A
54
EC
76
AF
3B
65
D9
4B
98
D4
83
6A
86
4C
E1
A1
9A
7F
35
B8
8C
03
CA
97
C5
86
05
89
AB
C3
2C
41
16
77
EF
82
3F
36
AE
2A
DA
0A
0C
0F
1A
0D
FD
0A
0F
3B
FC
2A
24
3F
C7
B7
0F
0A
86
BA
5D
9D
86
C5
E0
73
1E
14
11
E7
FD
5D
B7
62
A8
C6
63
42
0F
86
D9
22
33
4D
76
0C
06
04
03
F7
02
6B
12
1B
0E
83
0A
09
9E
CE
32
A9
7F
90
A8
3B
FC
D4
6A
4C
5E
71
B7
FC
82
54
41
6C
7E
2C
F9
B5
0B
AE
7A
9A
EC
D7
EA
75
AD
BC
E2
11
C3
AE
2D
F9
3F
47
D7
9A
32
7A
3D
DD
93
54
C4
8E
B3
29
64
47
AD
3D
AB
70
97
E7
FD
5D
E2
93
1E
76
4D
33
22
EE
99
5A
C2
66
77
63
9E
AC
D1
1F
0A
09
0E
83
DF
E1
BE
08
0C
A9
42
1F
C8
9E
E1
0F
83
09
4C
B5
D4
98
0A
0F
2B
1E
1B
12
98
61
BE
D4
67
DA
73
A4
52
97
0C
0A
CE
28
3C
E6
4F
B0
C3
EE
2C
82
3C
36
24
2D
C9
EA
47
14
1E
E6
78
6C
48
5A
23
9F
EA
CE
A9
22
2E
17
1A
18
14
28
50
78
44
78
44
5A
6C
77
8E
47
7A
73
C4
95
D3
E7
BA
1E
11
4F
44
66
37
D1
34
1A
E7
A9
73
3C
D1
37
66
44
78
44
78
50
88

